param set_len = 50;
param target = 9941099513;
param values := [0] 271654068 [1] 405861433 [2] 693843056 [3] 17555688 [4] 247819289 [5] 514999583 [6] 140464782 [7] 929346760 [8] 335109989 [9] 780181776 [10] 600160084 [11] 495763279 [12] 351084761 [13] 571987074 [14] 124751040 [15] 637687163 [16] 74393544 [17] 444820216 [18] 526862110 [19] 312815845 [20] 851680977 [21] 222047051 [22] 83197744 [23] 176942673 [24] 382884708 [25] 218738476 [26] 627467533 [27] 1012163485 [28] 275473196 [29] 769855157 [30] 151971152 [31] 532253669 [32] 1055711095 [33] 788985557 [34] 617616193 [35] 422073821 [36] 826200544 [37] 833903555 [38] 71454881 [39] 63607811 [40] 544147529 [41] 124931761 [42] 697651368 [43] 545566782 [44] 1022329856 [45] 99074421 [46] 954076080 [47] 16661760 [48] 379084871 [49] 463894 ;
